c A SAT instance generated from a 3-CNF formula that had 26 clauses and 13 variables
p cnf 13 26
10 12 5 0
-8 7 -1 0
-11 -8 13 0
10 -3 2 0
4 3 6 0
-12 6 13 0
-10 4 5 0
6 -10 -8 0
11 -3 -5 0
-6 3 -10 0
-2 12 -1 0
6 -5 -2 0
-13 -3 -11 0
3 -7 9 0
4 -7 -3 0
-10 -11 -8 0
-13 -4 7 0
8 1 -5 0
8 4 3 0
-10 -6 -13 0
1 -11 -2 0
3 -4 5 0
2 6 -4 0
7 9 -8 0
11 -10 6 0
-9 3 -11 0
